4129 2159 498 497 496 494 493 492 491 489 486 485 481 478 476 472 471 468 466 465 462 461 458 456 454 453 452 451 450 449 448 447 443 439 437 434 433 429 428 427 426 425 424 422 419 415 413 411 409 408 406 403 400 398 397 396 389 388 387 386 382 380 378 376 370 368 365 360 355 351 349 348 347 345 343 342 341 339 337 333 332 331 327 326 325 324 320 317 314 312 310 306 304 303 302 298 295 292 287 284 283 276 274 273 272 271 270 267 265 263 262 261 260 256 252 251 249 244 243 242 239 233 231 230 229 226 225 218 217 216 215 214 212 210 209 207 206 202 188 184 182 181 179 178 176 174 173 171 170 168 163 161 159 149 148 146 145 142 139 130 129 128 124 120 118 114 111 109 105 103 94 92 90 89 84 83 72 71 70 67 66 64 56 53 50 37 36 33 30 26 24 23 21 19 17 16 14 6 4 